# Photo problem 1

set PERSONS = 1 2 3 4 5 6 7;
param n := 7;
param preferences: 
#  B C D F G M P
   1 2 3 4 5 6 7 := 
1  0 0 0 0 1 1 0  # Betty  1
2  1 0 0 0 1 0 0  # Chris  2
3  0 0 0 0 0 0 0  # Donald 3
4  0 0 1 0 0 1 0  # Fred   4
5  0 0 0 0 0 0 0  # Gary   5
6  0 0 0 0 0 0 0  # Mary   6
7  0 0 1 1 0 0 0  # Paul   7
;
